NAME : A-n32-k5
COMMENT : (Augerat et al, No of trucks: 5, Optimal value: 784)
TYPE : CVRP
DIMENSION : 32
EDGE_WEIGHT_TYPE : EUC_2D 
CAPACITY : 100
NODE_COORD_SECTION 
 1 82 76
 5 13 7
 8 84 39
 9 14 24
 10 2 39
 15 61 59
 18 91 2
 20 93 3
 22 98 14
 25 61 62
 29 23 15
DEMAND_SECTION 
1 0  
5 19 
8 16 
9 6 
10 16 
15 3 
18 19 
20 24 
22 12 
25 24 
29 15 
DEPOT_SECTION 
 1  
 -1  
EOF 
